SCIP version 5.0.0 [precision: 8 byte] [memory: block] [mode: optimized] [LP solver: NONE] [GitHash: 3bbd232]
Copyright (C) 2002-2017 Konrad-Zuse-Zentrum fuer Informationstechnik Berlin (ZIB)

External codes: 
  Readline EditLine w  GNU library for command line editing (gnu.org/s/readline)
  CppAD 20160000.1     Algorithmic Differentiation of C++ algorithms developed by B. Bell (www.coin-or.org/CppAD)
  ZLIB 1.2.5           General purpose compression library by J. Gailly and M. Adler (zlib.net)
  GMP 6.1.2            GNU Multiple Precision Arithmetic Library developed by T. Granlund (gmplib.org)

user parameter file <scip.set> not found - using default parameters

read problem <../../Split_data/output/biodeg/7/0_sample_biodeg.logreg>
============

File name	:	../../Split_data/output/biodeg/7/0_sample_biodeg.logreg
Problem name 	:	0_sample_biodeg
Number of data	:	844
Number of var	:	41
The given data has linear dependence
1 sets of column vector are linearly dependent:
{ 19}, 

[dim=1] time: 0.030413
[dim=2] time: 0.059553
[dim=3] time: 0.091828
[dim=4] time: 0.125375
[dim=5] time: 0.16603
[dim=6] time: 0.206529
[dim=7] time: 0.243225
[dim=8] time: 0.271385
[dim=9] time: 0.297872
[dim=10] time: 0.325465
[dim=11] time: 0.35322
[dim=12] time: 0.379509
[dim=13] time: 0.403992
[dim=14] time: 0.427213
[dim=15] time: 0.458455
[dim=16] time: 0.483133
[dim=17] time: 0.506532
[dim=18] time: 0.529507
[dim=19] time: 0.546571
[dim=20] time: 0.563861
[dim=21] time: 0.580139
[dim=22] time: 0.596913
[dim=23] time: 0.616146
[dim=24] Time of forward = 0.632659sec.
AIC: 507.151
k: 23

[dim=40] time: 0.138178
[dim=39] time: 0.189473
[dim=38] time: 0.229949
[dim=37] time: 0.2723
[dim=36] time: 0.31012
[dim=35] time: 0.353396
[dim=34] time: 0.40615
[dim=33] time: 0.454123
[dim=32] time: 0.518514
[dim=31] time: 0.578368
[dim=30] time: 0.631015
[dim=29] time: 0.697253
[dim=28] time: 0.729452
[dim=27] time: 0.775324
[dim=26] time: 0.810315
[dim=25] time: 0.839261
[dim=24] time: 0.871472
[dim=23] time: 0.896413
[dim=22] time: 0.926519
[dim=21] time: 0.949379
[dim=20] time: 0.976452
[dim=19] time: 1.0066
[dim=18] Time of backward = 1.02568sec.
AIC: 503.08
k: 19
